38
8208 16392 25730 30770 49206 50640 63121 73180 73371 74116 84509 95262 95573 99748 114721 115565 131090 132120 132530 135652 149046 155592 158502 161090 163852 165558 169944 170832 171336 175299 187225 191142 198556 200022 200211 205130 210146 219365 